BAYES
511
2 2 2 2 2 2 2 2 2 2 2 2 2 2 2 2 2 2 2 2 2 2 2 2 2 2 2 2 2 2 2 2 2 2 2 2 2 2 2 2 2 2 2 2 2 2 2 2 2 2 2 2 2 2 2 2 2 2 2 2 2 2 2 2 2 2 2 2 2 2 2 2 2 2 2 2 2 2 2 2 2 2 2 2 2 2 2 2 2 2 2 2 2 2 2 2 2 2 2 2 2 2 2 2 2 2 2 2 2 2 2 2 2 2 2 2 2 2 2 2 2 2 2 2 2 2 2 2 2 2 2 2 2 2 2 2 2 2 2 2 2 2 2 2 2 2 2 2 2 2 2 2 2 2 2 2 2 2 2 2 2 2 2 2 2 2 2 2 2 2 2 2 2 2 2 2 2 2 2 2 2 2 2 2 2 2 2 2 2 2 2 2 2 2 2 2 2 2 2 2 2 2 2 2 2 2 2 2 2 2 2 2 2 2 2 2 2 2 2 2 2 2 2 2 2 2 2 2 2 2 2 2 2 2 2 2 2 2 2 2 2 2 2 2 2 2 2 2 2 2 2 2 2 2 2 2 2 2 2 2 2 2 2 2 2 2 2 2 2 2 2 2 2 2 2 2 2 2 2 2 2 2 2 2 2 2 2 2 2 2 2 2 2 2 2 2 2 2 2 2 2 2 2 2 2 2 2 2 2 2 2 2 2 2 2 2 2 2 2 2 2 2 2 2 2 2 2 2 2 2 2 2 2 2 2 2 2 2 2 2 2 2 2 2 2 2 2 2 2 2 2 2 2 2 2 2 2 2 2 2 2 2 2 2 2 2 2 2 2 2 2 2 2 2 2 2 2 2 2 2 2 2 2 2 2 2 2 2 2 2 2 2 2 2 2 2 2 2 2 2 2 2 2 2 2 2 2 2 2 2 2 2 2 2 2 2 2 2 2 2 2 2 2 2 2 2 2 2 2 2 2 2 2 2 2 2 2 2 2 2 2 2 2 2 2 2 2 2 2 2 2 2 2 2 2 2 2 2 2 2 2 2 2 2 2 2 2 2 2 2 2 2 2 2 2 2 2 2 2 2 2 2 2 2 2 2 2 2 2 2 2 2 2 2 2 2 2 2 2 2 2 2 2 2 2 2 2 2 2 2 2
511
1 0
1 1
1 2
1 3
1 4
1 5
1 6
1 7
1 8
1 9
1 10
1 11
1 12
1 13
1 14
1 15
1 16
1 17
1 18
1 19
1 20
1 21
1 22
1 23
1 24
1 25
1 26
1 27
1 28
1 29
1 30
1 31
1 32
1 33
1 34
1 35
1 36
1 37
1 38
1 39
1 40
1 41
1 42
1 43
1 44
1 45
1 46
1 47
1 48
1 49
1 50
1 51
1 52
1 53
1 54
1 55
1 56
1 57
1 58
1 59
1 60
1 61
1 62
1 63
1 64
1 65
1 66
1 67
1 68
1 69
1 70
1 71
1 72
1 73
1 74
1 75
1 76
1 77
1 78
1 79
1 80
1 81
1 82
1 83
1 84
1 85
1 86
1 87
1 88
1 89
1 90
1 91
1 92
1 93
1 94
1 95
1 96
1 97
1 98
1 99
1 100
1 101
1 102
1 103
1 104
1 105
1 106
1 107
1 108
1 109
1 110
1 111
1 112
1 113
1 114
1 115
1 116
1 117
1 118
1 119
1 120
1 121
1 122
1 123
1 124
1 125
1 126
1 127
1 128
1 129
1 130
1 131
1 132
1 133
1 134
1 135
1 136
1 137
1 138
1 139
1 140
1 141
1 142
1 143
1 144
1 145
1 146
1 147
1 148
1 149
1 150
1 151
1 152
1 153
1 154
1 155
1 156
1 157
1 158
1 159
1 160
1 161
1 162
1 163
1 164
1 165
1 166
1 167
1 168
1 169
1 170
1 171
1 172
1 173
1 174
1 175
1 176
3 97 0 177
3 98 1 178
3 104 2 179
6 95 98 107 94 3 180
7 105 97 96 103 101 4 181
3 95 5 182
3 100 6 183
3 96 7 184
3 101 8 185
3 102 9 186
3 103 10 187
3 99 11 188
3 107 12 189
7 106 95 99 102 94 13 190
3 94 14 191
7 106 100 99 104 102 15 192
3 105 16 193
3 106 17 194
3 112 18 195
3 113 19 196
3 121 20 197
6 110 113 125 108 21 198
6 110 125 113 123 22 199
7 120 110 111 117 123 23 200
3 116 24 201
7 120 112 111 122 117 25 202
3 109 26 203
3 110 27 204
3 115 28 205
3 111 29 206
7 120 112 111 122 116 30 207
3 117 31 208
3 123 32 209
3 119 33 210
3 118 34 211
7 124 110 114 118 108 35 212
3 122 36 213
3 114 37 214
3 125 38 215
7 124 110 114 119 108 39 216
3 108 40 217
7 124 115 114 121 119 41 218
3 120 42 219
3 124 43 220
7 124 115 114 121 109 44 221
3 130 45 222
3 131 46 223
6 128 131 144 126 47 224
6 128 144 131 142 48 225
7 140 128 129 135 142 49 226
7 141 128 129 137 142 50 227
3 128 51 228
3 129 52 229
7 140 130 129 138 134 53 230
3 135 54 231
3 142 55 232
3 137 56 233
3 136 57 234
7 141 128 132 137 126 58 235
3 138 59 236
3 132 60 237
3 143 61 238
3 144 62 239
7 141 128 132 136 126 63 240
3 126 64 241
3 140 65 242
7 140 128 129 143 142 66 243
3 141 67 244
7 141 133 132 139 127 68 245
3 148 69 246
6 146 149 160 145 70 247
6 146 160 149 157 71 248
7 155 146 147 152 157 72 249
7 155 146 151 159 145 73 250
3 150 74 251
7 158 146 147 153 157 75 252
7 158 148 147 156 150 76 253
3 146 77 254
3 147 78 255
7 158 146 147 150 157 79 256
3 157 80 257
3 153 81 258
3 156 82 259
3 151 83 260
3 159 84 261
7 158 146 151 154 145 85 262
3 145 86 263
3 155 87 264
3 158 88 265
7 169 162 166 174 161 89 266
3 165 90 267
7 170 162 163 167 171 91 268
7 170 164 163 168 172 92 269
3 173 93 270
3 14 108 271
3 15 109 272
3 5 110 273
3 7 111 274
3 0 112 275
3 1 113 276
3 11 114 277
3 6 115 278
3 4 116 279
3 8 117 280
3 13 118 281
3 9 119 282
3 16 120 283
3 2 121 284
3 10 122 285
3 3 123 286
3 17 124 287
3 12 125 288
3 13 3 289
3 14 3 290
3 8 4 291
3 15 9 292
3 13 9 293
3 15 13 294
4 22 40 126 295
4 41 26 127 296
3 27 128 297
3 29 129 298
3 18 130 299
3 19 131 300
3 37 132 301
3 28 133 302
4 25 24 134 303
4 30 31 135 304
5 44 35 33 136 305
4 39 34 137 306
3 36 138 307
3 20 139 308
3 42 140 309
3 43 141 310
4 21 32 142 311
3 23 143 312
3 38 144 313
3 23 21 314
3 22 21 315
3 39 21 316
3 35 21 317
3 40 21 318
3 32 21 319
3 39 22 320
3 35 22 321
3 23 22 322
3 32 22 323
3 34 22 324
3 40 22 325
3 39 23 326
3 25 23 327
3 31 23 328
3 30 23 329
3 24 23 330
3 34 23 331
3 35 23 332
3 40 23 333
3 30 24 334
3 25 24 335
3 31 24 336
3 31 25 337
3 30 25 338
3 44 26 339
3 39 26 340
3 35 26 341
3 41 26 342
3 34 26 343
3 33 26 344
3 31 30 345
3 40 32 346
3 39 32 347
3 35 32 348
3 34 32 349
3 41 33 350
3 39 33 351
3 34 33 352
3 44 33 353
3 35 33 354
3 44 34 355
3 41 34 356
3 35 34 357
3 39 34 358
3 44 35 359
3 41 35 360
3 39 35 361
3 41 39 362
3 44 39 363
3 44 41 364
4 48 64 145 365
3 51 146 366
3 52 147 367
3 45 148 368
3 46 149 369
3 50 150 370
3 60 151 371
5 53 66 54 152 372
4 63 56 153 373
5 68 58 57 154 374
3 65 155 375
3 59 156 376
4 47 55 157 377
3 67 158 378
4 49 61 159 379
3 62 160 380
3 66 47 381
3 50 47 382
3 49 47 383
3 48 47 384
3 63 47 385
3 58 47 386
3 64 47 387
3 55 47 388
3 61 47 389
3 63 48 390
3 58 48 391
3 49 48 392
3 50 48 393
3 66 48 394
3 55 48 395
3 64 48 396
3 63 49 397
3 54 49 398
3 53 49 399
3 66 49 400
3 61 49 401
3 58 49 402
3 64 49 403
3 68 50 404
3 63 50 405
3 58 50 406
3 56 50 407
3 57 50 408
3 66 50 409
3 61 50 410
3 64 50 411
3 54 53 412
3 66 53 413
3 61 53 414
3 66 54 415
3 61 54 416
3 64 55 417
3 63 55 418
3 58 55 419
3 68 56 420
3 66 56 421
3 58 56 422
3 57 56 423
3 63 56 424
3 61 56 425
3 63 57 426
3 68 57 427
3 58 57 428
3 68 58 429
3 63 58 430
3 66 58 431
3 61 58 432
3 66 61 433
3 64 61 434
3 63 61 435
3 68 63 436
3 66 63 437
3 66 64 438
4 71 86 161 439
3 77 162 440
3 78 163 441
3 69 164 442
4 75 74 165 443
3 83 166 444
5 85 79 81 167 445
3 82 168 446
3 87 169 447
3 88 170 448
4 70 80 171 449
3 76 172 450
3 73 173 451
4 72 84 174 452
3 79 70 453
3 76 70 454
3 75 70 455
3 72 70 456
3 71 70 457
3 85 70 458
3 73 70 459
3 86 70 460
3 80 70 461
3 74 70 462
3 85 71 463
3 73 71 464
3 79 71 465
3 72 71 466
3 75 71 467
3 80 71 468
3 86 71 469
3 85 72 470
3 84 72 471
3 73 72 472
3 86 72 473
3 79 73 474
3 76 73 475
3 75 73 476
3 84 73 477
3 80 73 478
3 74 73 479
3 86 74 480
3 85 74 481
3 79 74 482
3 76 74 483
3 75 74 484
3 81 74 485
3 76 75 486
3 85 75 487
3 79 75 488
3 81 75 489
3 86 75 490
3 79 76 491
3 86 76 492
3 81 76 493
3 85 76 494
3 85 79 495
3 81 79 496
3 86 79 497
3 86 80 498
3 85 80 499
3 85 81 500
5 92 91 90 175 501
4 89 93 176 502
3 91 89 503
3 93 89 504
3 92 90 505
3 91 90 506
3 93 90 507
3 92 91 508
3 93 91 509
3 93 92 510

2
0.5 0.5
2
0.5 0.5
2
0.5 0.5
2
0.5 0.5
2
0.5 0.5
2
0.5 0.5
2
0.5 0.5
2
0.5 0.5
2
0.5 0.5
2
0.5 0.5
2
0.5 0.5
2
0.5 0.5
2
0.5 0.5
2
0.5 0.5
2
0.5 0.5
2
0.5 0.5
2
0.5 0.5
2
0.5 0.5
2
0.5 0.5
2
0.5 0.5
2
0.5 0.5
2
0.5 0.5
2
0.5 0.5
2
0.5 0.5
2
0.5 0.5
2
0.5 0.5
2
0.5 0.5
2
0.5 0.5
2
0.5 0.5
2
0.5 0.5
2
0.5 0.5
2
0.5 0.5
2
0.5 0.5
2
0.5 0.5
2
0.5 0.5
2
0.5 0.5
2
0.5 0.5
2
0.5 0.5
2
0.5 0.5
2
0.5 0.5
2
0.5 0.5
2
0.5 0.5
2
0.5 0.5
2
0.5 0.5
2
0.5 0.5
2
0.5 0.5
2
0.5 0.5
2
0.5 0.5
2
0.5 0.5
2
0.5 0.5
2
0.5 0.5
2
0.5 0.5
2
0.5 0.5
2
0.5 0.5
2
0.5 0.5
2
0.5 0.5
2
0.5 0.5
2
0.5 0.5
2
0.5 0.5
2
0.5 0.5
2
0.5 0.5
2
0.5 0.5
2
0.5 0.5
2
0.5 0.5
2
0.5 0.5
2
0.5 0.5
2
0.5 0.5
2
0.5 0.5
2
0.5 0.5
2
0.5 0.5
2
0.5 0.5
2
0.5 0.5
2
0.5 0.5
2
0.5 0.5
2
0.5 0.5
2
0.5 0.5
2
0.5 0.5
2
0.5 0.5
2
0.5 0.5
2
0.5 0.5
2
0.5 0.5
2
0.5 0.5
2
0.5 0.5
2
0.5 0.5
2
0.5 0.5
2
0.5 0.5
2
0.5 0.5
2
0.5 0.5
2
0.5 0.5
2
0.5 0.5
2
0.5 0.5
2
0.5 0.5
2
0.5 0.5
2
0.5 0.5
2
0.5 0.5
2
0.5 0.5
2
0.5 0.5
2
0.5 0.5
2
0.5 0.5
2
0.5 0.5
2
0.5 0.5
2
0.5 0.5
2
0.5 0.5
2
0.5 0.5
2
0.5 0.5
2
0.5 0.5
2
0.5 0.5
2
0.5 0.5
2
0.5 0.5
2
0.5 0.5
2
0.5 0.5
2
0.5 0.5
2
0.5 0.5
2
0.5 0.5
2
0.5 0.5
2
0.5 0.5
2
0.5 0.5
2
0.5 0.5
2
0.5 0.5
2
0.5 0.5
2
0.5 0.5
2
0.5 0.5
2
0.5 0.5
2
0.5 0.5
2
0.5 0.5
2
0.5 0.5
2
0.5 0.5
2
0.5 0.5
2
0.5 0.5
2
0.5 0.5
2
0.5 0.5
2
0.5 0.5
2
0.5 0.5
2
0.5 0.5
2
0.5 0.5
2
0.5 0.5
2
0.5 0.5
2
0.5 0.5
2
0.5 0.5
2
0.5 0.5
2
0.5 0.5
2
0.5 0.5
2
0.5 0.5
2
0.5 0.5
2
0.5 0.5
2
0.5 0.5
2
0.5 0.5
2
0.5 0.5
2
0.5 0.5
2
0.5 0.5
2
0.5 0.5
2
0.5 0.5
2
0.5 0.5
2
0.5 0.5
2
0.5 0.5
2
0.5 0.5
2
0.5 0.5
2
0.5 0.5
2
0.5 0.5
2
0.5 0.5
2
0.5 0.5
2
0.5 0.5
2
0.5 0.5
2
0.5 0.5
2
0.5 0.5
2
0.5 0.5
2
0.5 0.5
2
0.5 0.5
2
0.5 0.5
2
0.5 0.5
2
0.5 0.5
2
0.5 0.5
2
0.5 0.5
2
0.5 0.5
2
0.5 0.5
2
0.5 0.5
2
0.5 0.5
8
0.0 1.0 1.0 0.0 0.0 1.0 0.0 1.0
8
0.0 1.0 1.0 0.0 0.0 1.0 0.0 1.0
8
0.0 1.0 1.0 0.0 0.0 1.0 0.0 1.0
64
0.0 1.0 1.0 0.0 1.0 0.0 1.0 0.0 1.0 0.0 1.0 0.0 1.0 0.0 1.0 0.0 1.0 0.0 1.0 0.0 1.0 0.0 1.0 0.0 1.0 0.0 1.0 0.0 1.0 0.0 1.0 0.0 0.0 1.0 0.0 1.0 0.0 1.0 0.0 1.0 0.0 1.0 0.0 1.0 0.0 1.0 0.0 1.0 0.0 1.0 0.0 1.0 0.0 1.0 0.0 1.0 0.0 1.0 0.0 1.0 0.0 1.0 0.0 1.0
128
0.0 1.0 1.0 0.0 1.0 0.0 1.0 0.0 1.0 0.0 1.0 0.0 1.0 0.0 1.0 0.0 1.0 0.0 1.0 0.0 1.0 0.0 1.0 0.0 1.0 0.0 1.0 0.0 1.0 0.0 1.0 0.0 1.0 0.0 1.0 0.0 1.0 0.0 1.0 0.0 1.0 0.0 1.0 0.0 1.0 0.0 1.0 0.0 1.0 0.0 1.0 0.0 1.0 0.0 1.0 0.0 1.0 0.0 1.0 0.0 1.0 0.0 1.0 0.0 0.0 1.0 0.0 1.0 0.0 1.0 0.0 1.0 0.0 1.0 0.0 1.0 0.0 1.0 0.0 1.0 0.0 1.0 0.0 1.0 0.0 1.0 0.0 1.0 0.0 1.0 0.0 1.0 0.0 1.0 0.0 1.0 0.0 1.0 0.0 1.0 0.0 1.0 0.0 1.0 0.0 1.0 0.0 1.0 0.0 1.0 0.0 1.0 0.0 1.0 0.0 1.0 0.0 1.0 0.0 1.0 0.0 1.0 0.0 1.0 0.0 1.0 0.0 1.0
8
0.0 1.0 1.0 0.0 0.0 1.0 0.0 1.0
8
0.0 1.0 1.0 0.0 0.0 1.0 0.0 1.0
8
0.0 1.0 1.0 0.0 0.0 1.0 0.0 1.0
8
0.0 1.0 1.0 0.0 0.0 1.0 0.0 1.0
8
0.0 1.0 1.0 0.0 0.0 1.0 0.0 1.0
8
0.0 1.0 1.0 0.0 0.0 1.0 0.0 1.0
8
0.0 1.0 1.0 0.0 0.0 1.0 0.0 1.0
8
0.0 1.0 1.0 0.0 0.0 1.0 0.0 1.0
128
0.0 1.0 1.0 0.0 1.0 0.0 1.0 0.0 1.0 0.0 1.0 0.0 1.0 0.0 1.0 0.0 1.0 0.0 1.0 0.0 1.0 0.0 1.0 0.0 1.0 0.0 1.0 0.0 1.0 0.0 1.0 0.0 1.0 0.0 1.0 0.0 1.0 0.0 1.0 0.0 1.0 0.0 1.0 0.0 1.0 0.0 1.0 0.0 1.0 0.0 1.0 0.0 1.0 0.0 1.0 0.0 1.0 0.0 1.0 0.0 1.0 0.0 1.0 0.0 0.0 1.0 0.0 1.0 0.0 1.0 0.0 1.0 0.0 1.0 0.0 1.0 0.0 1.0 0.0 1.0 0.0 1.0 0.0 1.0 0.0 1.0 0.0 1.0 0.0 1.0 0.0 1.0 0.0 1.0 0.0 1.0 0.0 1.0 0.0 1.0 0.0 1.0 0.0 1.0 0.0 1.0 0.0 1.0 0.0 1.0 0.0 1.0 0.0 1.0 0.0 1.0 0.0 1.0 0.0 1.0 0.0 1.0 0.0 1.0 0.0 1.0 0.0 1.0
8
0.0 1.0 1.0 0.0 0.0 1.0 0.0 1.0
128
0.0 1.0 1.0 0.0 1.0 0.0 1.0 0.0 1.0 0.0 1.0 0.0 1.0 0.0 1.0 0.0 1.0 0.0 1.0 0.0 1.0 0.0 1.0 0.0 1.0 0.0 1.0 0.0 1.0 0.0 1.0 0.0 1.0 0.0 1.0 0.0 1.0 0.0 1.0 0.0 1.0 0.0 1.0 0.0 1.0 0.0 1.0 0.0 1.0 0.0 1.0 0.0 1.0 0.0 1.0 0.0 1.0 0.0 1.0 0.0 1.0 0.0 1.0 0.0 0.0 1.0 0.0 1.0 0.0 1.0 0.0 1.0 0.0 1.0 0.0 1.0 0.0 1.0 0.0 1.0 0.0 1.0 0.0 1.0 0.0 1.0 0.0 1.0 0.0 1.0 0.0 1.0 0.0 1.0 0.0 1.0 0.0 1.0 0.0 1.0 0.0 1.0 0.0 1.0 0.0 1.0 0.0 1.0 0.0 1.0 0.0 1.0 0.0 1.0 0.0 1.0 0.0 1.0 0.0 1.0 0.0 1.0 0.0 1.0 0.0 1.0 0.0 1.0
8
0.0 1.0 1.0 0.0 0.0 1.0 0.0 1.0
8
0.0 1.0 1.0 0.0 0.0 1.0 0.0 1.0
8
0.0 1.0 1.0 0.0 0.0 1.0 0.0 1.0
8
0.0 1.0 1.0 0.0 0.0 1.0 0.0 1.0
8
0.0 1.0 1.0 0.0 0.0 1.0 0.0 1.0
64
0.0 1.0 1.0 0.0 1.0 0.0 1.0 0.0 1.0 0.0 1.0 0.0 1.0 0.0 1.0 0.0 1.0 0.0 1.0 0.0 1.0 0.0 1.0 0.0 1.0 0.0 1.0 0.0 1.0 0.0 1.0 0.0 0.0 1.0 0.0 1.0 0.0 1.0 0.0 1.0 0.0 1.0 0.0 1.0 0.0 1.0 0.0 1.0 0.0 1.0 0.0 1.0 0.0 1.0 0.0 1.0 0.0 1.0 0.0 1.0 0.0 1.0 0.0 1.0
64
0.0 1.0 1.0 0.0 1.0 0.0 1.0 0.0 1.0 0.0 1.0 0.0 1.0 0.0 1.0 0.0 1.0 0.0 1.0 0.0 1.0 0.0 1.0 0.0 1.0 0.0 1.0 0.0 1.0 0.0 1.0 0.0 0.0 1.0 0.0 1.0 0.0 1.0 0.0 1.0 0.0 1.0 0.0 1.0 0.0 1.0 0.0 1.0 0.0 1.0 0.0 1.0 0.0 1.0 0.0 1.0 0.0 1.0 0.0 1.0 0.0 1.0 0.0 1.0
128
0.0 1.0 1.0 0.0 1.0 0.0 1.0 0.0 1.0 0.0 1.0 0.0 1.0 0.0 1.0 0.0 1.0 0.0 1.0 0.0 1.0 0.0 1.0 0.0 1.0 0.0 1.0 0.0 1.0 0.0 1.0 0.0 1.0 0.0 1.0 0.0 1.0 0.0 1.0 0.0 1.0 0.0 1.0 0.0 1.0 0.0 1.0 0.0 1.0 0.0 1.0 0.0 1.0 0.0 1.0 0.0 1.0 0.0 1.0 0.0 1.0 0.0 1.0 0.0 0.0 1.0 0.0 1.0 0.0 1.0 0.0 1.0 0.0 1.0 0.0 1.0 0.0 1.0 0.0 1.0 0.0 1.0 0.0 1.0 0.0 1.0 0.0 1.0 0.0 1.0 0.0 1.0 0.0 1.0 0.0 1.0 0.0 1.0 0.0 1.0 0.0 1.0 0.0 1.0 0.0 1.0 0.0 1.0 0.0 1.0 0.0 1.0 0.0 1.0 0.0 1.0 0.0 1.0 0.0 1.0 0.0 1.0 0.0 1.0 0.0 1.0 0.0 1.0
8
0.0 1.0 1.0 0.0 0.0 1.0 0.0 1.0
128
0.0 1.0 1.0 0.0 1.0 0.0 1.0 0.0 1.0 0.0 1.0 0.0 1.0 0.0 1.0 0.0 1.0 0.0 1.0 0.0 1.0 0.0 1.0 0.0 1.0 0.0 1.0 0.0 1.0 0.0 1.0 0.0 1.0 0.0 1.0 0.0 1.0 0.0 1.0 0.0 1.0 0.0 1.0 0.0 1.0 0.0 1.0 0.0 1.0 0.0 1.0 0.0 1.0 0.0 1.0 0.0 1.0 0.0 1.0 0.0 1.0 0.0 1.0 0.0 0.0 1.0 0.0 1.0 0.0 1.0 0.0 1.0 0.0 1.0 0.0 1.0 0.0 1.0 0.0 1.0 0.0 1.0 0.0 1.0 0.0 1.0 0.0 1.0 0.0 1.0 0.0 1.0 0.0 1.0 0.0 1.0 0.0 1.0 0.0 1.0 0.0 1.0 0.0 1.0 0.0 1.0 0.0 1.0 0.0 1.0 0.0 1.0 0.0 1.0 0.0 1.0 0.0 1.0 0.0 1.0 0.0 1.0 0.0 1.0 0.0 1.0 0.0 1.0
8
0.0 1.0 1.0 0.0 0.0 1.0 0.0 1.0
8
0.0 1.0 1.0 0.0 0.0 1.0 0.0 1.0
8
0.0 1.0 1.0 0.0 0.0 1.0 0.0 1.0
8
0.0 1.0 1.0 0.0 0.0 1.0 0.0 1.0
128
0.0 1.0 1.0 0.0 1.0 0.0 1.0 0.0 1.0 0.0 1.0 0.0 1.0 0.0 1.0 0.0 1.0 0.0 1.0 0.0 1.0 0.0 1.0 0.0 1.0 0.0 1.0 0.0 1.0 0.0 1.0 0.0 1.0 0.0 1.0 0.0 1.0 0.0 1.0 0.0 1.0 0.0 1.0 0.0 1.0 0.0 1.0 0.0 1.0 0.0 1.0 0.0 1.0 0.0 1.0 0.0 1.0 0.0 1.0 0.0 1.0 0.0 1.0 0.0 0.0 1.0 0.0 1.0 0.0 1.0 0.0 1.0 0.0 1.0 0.0 1.0 0.0 1.0 0.0 1.0 0.0 1.0 0.0 1.0 0.0 1.0 0.0 1.0 0.0 1.0 0.0 1.0 0.0 1.0 0.0 1.0 0.0 1.0 0.0 1.0 0.0 1.0 0.0 1.0 0.0 1.0 0.0 1.0 0.0 1.0 0.0 1.0 0.0 1.0 0.0 1.0 0.0 1.0 0.0 1.0 0.0 1.0 0.0 1.0 0.0 1.0 0.0 1.0
8
0.0 1.0 1.0 0.0 0.0 1.0 0.0 1.0
8
0.0 1.0 1.0 0.0 0.0 1.0 0.0 1.0
8
0.0 1.0 1.0 0.0 0.0 1.0 0.0 1.0
8
0.0 1.0 1.0 0.0 0.0 1.0 0.0 1.0
128
0.0 1.0 1.0 0.0 1.0 0.0 1.0 0.0 1.0 0.0 1.0 0.0 1.0 0.0 1.0 0.0 1.0 0.0 1.0 0.0 1.0 0.0 1.0 0.0 1.0 0.0 1.0 0.0 1.0 0.0 1.0 0.0 1.0 0.0 1.0 0.0 1.0 0.0 1.0 0.0 1.0 0.0 1.0 0.0 1.0 0.0 1.0 0.0 1.0 0.0 1.0 0.0 1.0 0.0 1.0 0.0 1.0 0.0 1.0 0.0 1.0 0.0 1.0 0.0 0.0 1.0 0.0 1.0 0.0 1.0 0.0 1.0 0.0 1.0 0.0 1.0 0.0 1.0 0.0 1.0 0.0 1.0 0.0 1.0 0.0 1.0 0.0 1.0 0.0 1.0 0.0 1.0 0.0 1.0 0.0 1.0 0.0 1.0 0.0 1.0 0.0 1.0 0.0 1.0 0.0 1.0 0.0 1.0 0.0 1.0 0.0 1.0 0.0 1.0 0.0 1.0 0.0 1.0 0.0 1.0 0.0 1.0 0.0 1.0 0.0 1.0 0.0 1.0
8
0.0 1.0 1.0 0.0 0.0 1.0 0.0 1.0
8
0.0 1.0 1.0 0.0 0.0 1.0 0.0 1.0
8
0.0 1.0 1.0 0.0 0.0 1.0 0.0 1.0
128
0.0 1.0 1.0 0.0 1.0 0.0 1.0 0.0 1.0 0.0 1.0 0.0 1.0 0.0 1.0 0.0 1.0 0.0 1.0 0.0 1.0 0.0 1.0 0.0 1.0 0.0 1.0 0.0 1.0 0.0 1.0 0.0 1.0 0.0 1.0 0.0 1.0 0.0 1.0 0.0 1.0 0.0 1.0 0.0 1.0 0.0 1.0 0.0 1.0 0.0 1.0 0.0 1.0 0.0 1.0 0.0 1.0 0.0 1.0 0.0 1.0 0.0 1.0 0.0 0.0 1.0 0.0 1.0 0.0 1.0 0.0 1.0 0.0 1.0 0.0 1.0 0.0 1.0 0.0 1.0 0.0 1.0 0.0 1.0 0.0 1.0 0.0 1.0 0.0 1.0 0.0 1.0 0.0 1.0 0.0 1.0 0.0 1.0 0.0 1.0 0.0 1.0 0.0 1.0 0.0 1.0 0.0 1.0 0.0 1.0 0.0 1.0 0.0 1.0 0.0 1.0 0.0 1.0 0.0 1.0 0.0 1.0 0.0 1.0 0.0 1.0 0.0 1.0
8
0.0 1.0 1.0 0.0 0.0 1.0 0.0 1.0
128
0.0 1.0 1.0 0.0 1.0 0.0 1.0 0.0 1.0 0.0 1.0 0.0 1.0 0.0 1.0 0.0 1.0 0.0 1.0 0.0 1.0 0.0 1.0 0.0 1.0 0.0 1.0 0.0 1.0 0.0 1.0 0.0 1.0 0.0 1.0 0.0 1.0 0.0 1.0 0.0 1.0 0.0 1.0 0.0 1.0 0.0 1.0 0.0 1.0 0.0 1.0 0.0 1.0 0.0 1.0 0.0 1.0 0.0 1.0 0.0 1.0 0.0 1.0 0.0 0.0 1.0 0.0 1.0 0.0 1.0 0.0 1.0 0.0 1.0 0.0 1.0 0.0 1.0 0.0 1.0 0.0 1.0 0.0 1.0 0.0 1.0 0.0 1.0 0.0 1.0 0.0 1.0 0.0 1.0 0.0 1.0 0.0 1.0 0.0 1.0 0.0 1.0 0.0 1.0 0.0 1.0 0.0 1.0 0.0 1.0 0.0 1.0 0.0 1.0 0.0 1.0 0.0 1.0 0.0 1.0 0.0 1.0 0.0 1.0 0.0 1.0 0.0 1.0
8
0.0 1.0 1.0 0.0 0.0 1.0 0.0 1.0
8
0.0 1.0 1.0 0.0 0.0 1.0 0.0 1.0
128
0.0 1.0 1.0 0.0 1.0 0.0 1.0 0.0 1.0 0.0 1.0 0.0 1.0 0.0 1.0 0.0 1.0 0.0 1.0 0.0 1.0 0.0 1.0 0.0 1.0 0.0 1.0 0.0 1.0 0.0 1.0 0.0 1.0 0.0 1.0 0.0 1.0 0.0 1.0 0.0 1.0 0.0 1.0 0.0 1.0 0.0 1.0 0.0 1.0 0.0 1.0 0.0 1.0 0.0 1.0 0.0 1.0 0.0 1.0 0.0 1.0 0.0 1.0 0.0 0.0 1.0 0.0 1.0 0.0 1.0 0.0 1.0 0.0 1.0 0.0 1.0 0.0 1.0 0.0 1.0 0.0 1.0 0.0 1.0 0.0 1.0 0.0 1.0 0.0 1.0 0.0 1.0 0.0 1.0 0.0 1.0 0.0 1.0 0.0 1.0 0.0 1.0 0.0 1.0 0.0 1.0 0.0 1.0 0.0 1.0 0.0 1.0 0.0 1.0 0.0 1.0 0.0 1.0 0.0 1.0 0.0 1.0 0.0 1.0 0.0 1.0 0.0 1.0
8
0.0 1.0 1.0 0.0 0.0 1.0 0.0 1.0
8
0.0 1.0 1.0 0.0 0.0 1.0 0.0 1.0
64
0.0 1.0 1.0 0.0 1.0 0.0 1.0 0.0 1.0 0.0 1.0 0.0 1.0 0.0 1.0 0.0 1.0 0.0 1.0 0.0 1.0 0.0 1.0 0.0 1.0 0.0 1.0 0.0 1.0 0.0 1.0 0.0 0.0 1.0 0.0 1.0 0.0 1.0 0.0 1.0 0.0 1.0 0.0 1.0 0.0 1.0 0.0 1.0 0.0 1.0 0.0 1.0 0.0 1.0 0.0 1.0 0.0 1.0 0.0 1.0 0.0 1.0 0.0 1.0
64
0.0 1.0 1.0 0.0 1.0 0.0 1.0 0.0 1.0 0.0 1.0 0.0 1.0 0.0 1.0 0.0 1.0 0.0 1.0 0.0 1.0 0.0 1.0 0.0 1.0 0.0 1.0 0.0 1.0 0.0 1.0 0.0 0.0 1.0 0.0 1.0 0.0 1.0 0.0 1.0 0.0 1.0 0.0 1.0 0.0 1.0 0.0 1.0 0.0 1.0 0.0 1.0 0.0 1.0 0.0 1.0 0.0 1.0 0.0 1.0 0.0 1.0 0.0 1.0
128
0.0 1.0 1.0 0.0 1.0 0.0 1.0 0.0 1.0 0.0 1.0 0.0 1.0 0.0 1.0 0.0 1.0 0.0 1.0 0.0 1.0 0.0 1.0 0.0 1.0 0.0 1.0 0.0 1.0 0.0 1.0 0.0 1.0 0.0 1.0 0.0 1.0 0.0 1.0 0.0 1.0 0.0 1.0 0.0 1.0 0.0 1.0 0.0 1.0 0.0 1.0 0.0 1.0 0.0 1.0 0.0 1.0 0.0 1.0 0.0 1.0 0.0 1.0 0.0 0.0 1.0 0.0 1.0 0.0 1.0 0.0 1.0 0.0 1.0 0.0 1.0 0.0 1.0 0.0 1.0 0.0 1.0 0.0 1.0 0.0 1.0 0.0 1.0 0.0 1.0 0.0 1.0 0.0 1.0 0.0 1.0 0.0 1.0 0.0 1.0 0.0 1.0 0.0 1.0 0.0 1.0 0.0 1.0 0.0 1.0 0.0 1.0 0.0 1.0 0.0 1.0 0.0 1.0 0.0 1.0 0.0 1.0 0.0 1.0 0.0 1.0 0.0 1.0
128
0.0 1.0 1.0 0.0 1.0 0.0 1.0 0.0 1.0 0.0 1.0 0.0 1.0 0.0 1.0 0.0 1.0 0.0 1.0 0.0 1.0 0.0 1.0 0.0 1.0 0.0 1.0 0.0 1.0 0.0 1.0 0.0 1.0 0.0 1.0 0.0 1.0 0.0 1.0 0.0 1.0 0.0 1.0 0.0 1.0 0.0 1.0 0.0 1.0 0.0 1.0 0.0 1.0 0.0 1.0 0.0 1.0 0.0 1.0 0.0 1.0 0.0 1.0 0.0 0.0 1.0 0.0 1.0 0.0 1.0 0.0 1.0 0.0 1.0 0.0 1.0 0.0 1.0 0.0 1.0 0.0 1.0 0.0 1.0 0.0 1.0 0.0 1.0 0.0 1.0 0.0 1.0 0.0 1.0 0.0 1.0 0.0 1.0 0.0 1.0 0.0 1.0 0.0 1.0 0.0 1.0 0.0 1.0 0.0 1.0 0.0 1.0 0.0 1.0 0.0 1.0 0.0 1.0 0.0 1.0 0.0 1.0 0.0 1.0 0.0 1.0 0.0 1.0
8
0.0 1.0 1.0 0.0 0.0 1.0 0.0 1.0
8
0.0 1.0 1.0 0.0 0.0 1.0 0.0 1.0
128
0.0 1.0 1.0 0.0 1.0 0.0 1.0 0.0 1.0 0.0 1.0 0.0 1.0 0.0 1.0 0.0 1.0 0.0 1.0 0.0 1.0 0.0 1.0 0.0 1.0 0.0 1.0 0.0 1.0 0.0 1.0 0.0 1.0 0.0 1.0 0.0 1.0 0.0 1.0 0.0 1.0 0.0 1.0 0.0 1.0 0.0 1.0 0.0 1.0 0.0 1.0 0.0 1.0 0.0 1.0 0.0 1.0 0.0 1.0 0.0 1.0 0.0 1.0 0.0 0.0 1.0 0.0 1.0 0.0 1.0 0.0 1.0 0.0 1.0 0.0 1.0 0.0 1.0 0.0 1.0 0.0 1.0 0.0 1.0 0.0 1.0 0.0 1.0 0.0 1.0 0.0 1.0 0.0 1.0 0.0 1.0 0.0 1.0 0.0 1.0 0.0 1.0 0.0 1.0 0.0 1.0 0.0 1.0 0.0 1.0 0.0 1.0 0.0 1.0 0.0 1.0 0.0 1.0 0.0 1.0 0.0 1.0 0.0 1.0 0.0 1.0 0.0 1.0
8
0.0 1.0 1.0 0.0 0.0 1.0 0.0 1.0
8
0.0 1.0 1.0 0.0 0.0 1.0 0.0 1.0
8
0.0 1.0 1.0 0.0 0.0 1.0 0.0 1.0
8
0.0 1.0 1.0 0.0 0.0 1.0 0.0 1.0
128
0.0 1.0 1.0 0.0 1.0 0.0 1.0 0.0 1.0 0.0 1.0 0.0 1.0 0.0 1.0 0.0 1.0 0.0 1.0 0.0 1.0 0.0 1.0 0.0 1.0 0.0 1.0 0.0 1.0 0.0 1.0 0.0 1.0 0.0 1.0 0.0 1.0 0.0 1.0 0.0 1.0 0.0 1.0 0.0 1.0 0.0 1.0 0.0 1.0 0.0 1.0 0.0 1.0 0.0 1.0 0.0 1.0 0.0 1.0 0.0 1.0 0.0 1.0 0.0 0.0 1.0 0.0 1.0 0.0 1.0 0.0 1.0 0.0 1.0 0.0 1.0 0.0 1.0 0.0 1.0 0.0 1.0 0.0 1.0 0.0 1.0 0.0 1.0 0.0 1.0 0.0 1.0 0.0 1.0 0.0 1.0 0.0 1.0 0.0 1.0 0.0 1.0 0.0 1.0 0.0 1.0 0.0 1.0 0.0 1.0 0.0 1.0 0.0 1.0 0.0 1.0 0.0 1.0 0.0 1.0 0.0 1.0 0.0 1.0 0.0 1.0 0.0 1.0
8
0.0 1.0 1.0 0.0 0.0 1.0 0.0 1.0
8
0.0 1.0 1.0 0.0 0.0 1.0 0.0 1.0
8
0.0 1.0 1.0 0.0 0.0 1.0 0.0 1.0
8
0.0 1.0 1.0 0.0 0.0 1.0 0.0 1.0
128
0.0 1.0 1.0 0.0 1.0 0.0 1.0 0.0 1.0 0.0 1.0 0.0 1.0 0.0 1.0 0.0 1.0 0.0 1.0 0.0 1.0 0.0 1.0 0.0 1.0 0.0 1.0 0.0 1.0 0.0 1.0 0.0 1.0 0.0 1.0 0.0 1.0 0.0 1.0 0.0 1.0 0.0 1.0 0.0 1.0 0.0 1.0 0.0 1.0 0.0 1.0 0.0 1.0 0.0 1.0 0.0 1.0 0.0 1.0 0.0 1.0 0.0 1.0 0.0 0.0 1.0 0.0 1.0 0.0 1.0 0.0 1.0 0.0 1.0 0.0 1.0 0.0 1.0 0.0 1.0 0.0 1.0 0.0 1.0 0.0 1.0 0.0 1.0 0.0 1.0 0.0 1.0 0.0 1.0 0.0 1.0 0.0 1.0 0.0 1.0 0.0 1.0 0.0 1.0 0.0 1.0 0.0 1.0 0.0 1.0 0.0 1.0 0.0 1.0 0.0 1.0 0.0 1.0 0.0 1.0 0.0 1.0 0.0 1.0 0.0 1.0 0.0 1.0
8
0.0 1.0 1.0 0.0 0.0 1.0 0.0 1.0
8
0.0 1.0 1.0 0.0 0.0 1.0 0.0 1.0
128
0.0 1.0 1.0 0.0 1.0 0.0 1.0 0.0 1.0 0.0 1.0 0.0 1.0 0.0 1.0 0.0 1.0 0.0 1.0 0.0 1.0 0.0 1.0 0.0 1.0 0.0 1.0 0.0 1.0 0.0 1.0 0.0 1.0 0.0 1.0 0.0 1.0 0.0 1.0 0.0 1.0 0.0 1.0 0.0 1.0 0.0 1.0 0.0 1.0 0.0 1.0 0.0 1.0 0.0 1.0 0.0 1.0 0.0 1.0 0.0 1.0 0.0 1.0 0.0 0.0 1.0 0.0 1.0 0.0 1.0 0.0 1.0 0.0 1.0 0.0 1.0 0.0 1.0 0.0 1.0 0.0 1.0 0.0 1.0 0.0 1.0 0.0 1.0 0.0 1.0 0.0 1.0 0.0 1.0 0.0 1.0 0.0 1.0 0.0 1.0 0.0 1.0 0.0 1.0 0.0 1.0 0.0 1.0 0.0 1.0 0.0 1.0 0.0 1.0 0.0 1.0 0.0 1.0 0.0 1.0 0.0 1.0 0.0 1.0 0.0 1.0 0.0 1.0
8
0.0 1.0 1.0 0.0 0.0 1.0 0.0 1.0
128
0.0 1.0 1.0 0.0 1.0 0.0 1.0 0.0 1.0 0.0 1.0 0.0 1.0 0.0 1.0 0.0 1.0 0.0 1.0 0.0 1.0 0.0 1.0 0.0 1.0 0.0 1.0 0.0 1.0 0.0 1.0 0.0 1.0 0.0 1.0 0.0 1.0 0.0 1.0 0.0 1.0 0.0 1.0 0.0 1.0 0.0 1.0 0.0 1.0 0.0 1.0 0.0 1.0 0.0 1.0 0.0 1.0 0.0 1.0 0.0 1.0 0.0 1.0 0.0 0.0 1.0 0.0 1.0 0.0 1.0 0.0 1.0 0.0 1.0 0.0 1.0 0.0 1.0 0.0 1.0 0.0 1.0 0.0 1.0 0.0 1.0 0.0 1.0 0.0 1.0 0.0 1.0 0.0 1.0 0.0 1.0 0.0 1.0 0.0 1.0 0.0 1.0 0.0 1.0 0.0 1.0 0.0 1.0 0.0 1.0 0.0 1.0 0.0 1.0 0.0 1.0 0.0 1.0 0.0 1.0 0.0 1.0 0.0 1.0 0.0 1.0 0.0 1.0
8
0.0 1.0 1.0 0.0 0.0 1.0 0.0 1.0
64
0.0 1.0 1.0 0.0 1.0 0.0 1.0 0.0 1.0 0.0 1.0 0.0 1.0 0.0 1.0 0.0 1.0 0.0 1.0 0.0 1.0 0.0 1.0 0.0 1.0 0.0 1.0 0.0 1.0 0.0 1.0 0.0 0.0 1.0 0.0 1.0 0.0 1.0 0.0 1.0 0.0 1.0 0.0 1.0 0.0 1.0 0.0 1.0 0.0 1.0 0.0 1.0 0.0 1.0 0.0 1.0 0.0 1.0 0.0 1.0 0.0 1.0 0.0 1.0
64
0.0 1.0 1.0 0.0 1.0 0.0 1.0 0.0 1.0 0.0 1.0 0.0 1.0 0.0 1.0 0.0 1.0 0.0 1.0 0.0 1.0 0.0 1.0 0.0 1.0 0.0 1.0 0.0 1.0 0.0 1.0 0.0 0.0 1.0 0.0 1.0 0.0 1.0 0.0 1.0 0.0 1.0 0.0 1.0 0.0 1.0 0.0 1.0 0.0 1.0 0.0 1.0 0.0 1.0 0.0 1.0 0.0 1.0 0.0 1.0 0.0 1.0 0.0 1.0
128
0.0 1.0 1.0 0.0 1.0 0.0 1.0 0.0 1.0 0.0 1.0 0.0 1.0 0.0 1.0 0.0 1.0 0.0 1.0 0.0 1.0 0.0 1.0 0.0 1.0 0.0 1.0 0.0 1.0 0.0 1.0 0.0 1.0 0.0 1.0 0.0 1.0 0.0 1.0 0.0 1.0 0.0 1.0 0.0 1.0 0.0 1.0 0.0 1.0 0.0 1.0 0.0 1.0 0.0 1.0 0.0 1.0 0.0 1.0 0.0 1.0 0.0 1.0 0.0 0.0 1.0 0.0 1.0 0.0 1.0 0.0 1.0 0.0 1.0 0.0 1.0 0.0 1.0 0.0 1.0 0.0 1.0 0.0 1.0 0.0 1.0 0.0 1.0 0.0 1.0 0.0 1.0 0.0 1.0 0.0 1.0 0.0 1.0 0.0 1.0 0.0 1.0 0.0 1.0 0.0 1.0 0.0 1.0 0.0 1.0 0.0 1.0 0.0 1.0 0.0 1.0 0.0 1.0 0.0 1.0 0.0 1.0 0.0 1.0 0.0 1.0 0.0 1.0
128
0.0 1.0 1.0 0.0 1.0 0.0 1.0 0.0 1.0 0.0 1.0 0.0 1.0 0.0 1.0 0.0 1.0 0.0 1.0 0.0 1.0 0.0 1.0 0.0 1.0 0.0 1.0 0.0 1.0 0.0 1.0 0.0 1.0 0.0 1.0 0.0 1.0 0.0 1.0 0.0 1.0 0.0 1.0 0.0 1.0 0.0 1.0 0.0 1.0 0.0 1.0 0.0 1.0 0.0 1.0 0.0 1.0 0.0 1.0 0.0 1.0 0.0 1.0 0.0 0.0 1.0 0.0 1.0 0.0 1.0 0.0 1.0 0.0 1.0 0.0 1.0 0.0 1.0 0.0 1.0 0.0 1.0 0.0 1.0 0.0 1.0 0.0 1.0 0.0 1.0 0.0 1.0 0.0 1.0 0.0 1.0 0.0 1.0 0.0 1.0 0.0 1.0 0.0 1.0 0.0 1.0 0.0 1.0 0.0 1.0 0.0 1.0 0.0 1.0 0.0 1.0 0.0 1.0 0.0 1.0 0.0 1.0 0.0 1.0 0.0 1.0 0.0 1.0
8
0.0 1.0 1.0 0.0 0.0 1.0 0.0 1.0
128
0.0 1.0 1.0 0.0 1.0 0.0 1.0 0.0 1.0 0.0 1.0 0.0 1.0 0.0 1.0 0.0 1.0 0.0 1.0 0.0 1.0 0.0 1.0 0.0 1.0 0.0 1.0 0.0 1.0 0.0 1.0 0.0 1.0 0.0 1.0 0.0 1.0 0.0 1.0 0.0 1.0 0.0 1.0 0.0 1.0 0.0 1.0 0.0 1.0 0.0 1.0 0.0 1.0 0.0 1.0 0.0 1.0 0.0 1.0 0.0 1.0 0.0 1.0 0.0 0.0 1.0 0.0 1.0 0.0 1.0 0.0 1.0 0.0 1.0 0.0 1.0 0.0 1.0 0.0 1.0 0.0 1.0 0.0 1.0 0.0 1.0 0.0 1.0 0.0 1.0 0.0 1.0 0.0 1.0 0.0 1.0 0.0 1.0 0.0 1.0 0.0 1.0 0.0 1.0 0.0 1.0 0.0 1.0 0.0 1.0 0.0 1.0 0.0 1.0 0.0 1.0 0.0 1.0 0.0 1.0 0.0 1.0 0.0 1.0 0.0 1.0 0.0 1.0
128
0.0 1.0 1.0 0.0 1.0 0.0 1.0 0.0 1.0 0.0 1.0 0.0 1.0 0.0 1.0 0.0 1.0 0.0 1.0 0.0 1.0 0.0 1.0 0.0 1.0 0.0 1.0 0.0 1.0 0.0 1.0 0.0 1.0 0.0 1.0 0.0 1.0 0.0 1.0 0.0 1.0 0.0 1.0 0.0 1.0 0.0 1.0 0.0 1.0 0.0 1.0 0.0 1.0 0.0 1.0 0.0 1.0 0.0 1.0 0.0 1.0 0.0 1.0 0.0 0.0 1.0 0.0 1.0 0.0 1.0 0.0 1.0 0.0 1.0 0.0 1.0 0.0 1.0 0.0 1.0 0.0 1.0 0.0 1.0 0.0 1.0 0.0 1.0 0.0 1.0 0.0 1.0 0.0 1.0 0.0 1.0 0.0 1.0 0.0 1.0 0.0 1.0 0.0 1.0 0.0 1.0 0.0 1.0 0.0 1.0 0.0 1.0 0.0 1.0 0.0 1.0 0.0 1.0 0.0 1.0 0.0 1.0 0.0 1.0 0.0 1.0 0.0 1.0
8
0.0 1.0 1.0 0.0 0.0 1.0 0.0 1.0
8
0.0 1.0 1.0 0.0 0.0 1.0 0.0 1.0
128
0.0 1.0 1.0 0.0 1.0 0.0 1.0 0.0 1.0 0.0 1.0 0.0 1.0 0.0 1.0 0.0 1.0 0.0 1.0 0.0 1.0 0.0 1.0 0.0 1.0 0.0 1.0 0.0 1.0 0.0 1.0 0.0 1.0 0.0 1.0 0.0 1.0 0.0 1.0 0.0 1.0 0.0 1.0 0.0 1.0 0.0 1.0 0.0 1.0 0.0 1.0 0.0 1.0 0.0 1.0 0.0 1.0 0.0 1.0 0.0 1.0 0.0 1.0 0.0 0.0 1.0 0.0 1.0 0.0 1.0 0.0 1.0 0.0 1.0 0.0 1.0 0.0 1.0 0.0 1.0 0.0 1.0 0.0 1.0 0.0 1.0 0.0 1.0 0.0 1.0 0.0 1.0 0.0 1.0 0.0 1.0 0.0 1.0 0.0 1.0 0.0 1.0 0.0 1.0 0.0 1.0 0.0 1.0 0.0 1.0 0.0 1.0 0.0 1.0 0.0 1.0 0.0 1.0 0.0 1.0 0.0 1.0 0.0 1.0 0.0 1.0 0.0 1.0
8
0.0 1.0 1.0 0.0 0.0 1.0 0.0 1.0
8
0.0 1.0 1.0 0.0 0.0 1.0 0.0 1.0
8
0.0 1.0 1.0 0.0 0.0 1.0 0.0 1.0
8
0.0 1.0 1.0 0.0 0.0 1.0 0.0 1.0
8
0.0 1.0 1.0 0.0 0.0 1.0 0.0 1.0
128
0.0 1.0 1.0 0.0 1.0 0.0 1.0 0.0 1.0 0.0 1.0 0.0 1.0 0.0 1.0 0.0 1.0 0.0 1.0 0.0 1.0 0.0 1.0 0.0 1.0 0.0 1.0 0.0 1.0 0.0 1.0 0.0 1.0 0.0 1.0 0.0 1.0 0.0 1.0 0.0 1.0 0.0 1.0 0.0 1.0 0.0 1.0 0.0 1.0 0.0 1.0 0.0 1.0 0.0 1.0 0.0 1.0 0.0 1.0 0.0 1.0 0.0 1.0 0.0 0.0 1.0 0.0 1.0 0.0 1.0 0.0 1.0 0.0 1.0 0.0 1.0 0.0 1.0 0.0 1.0 0.0 1.0 0.0 1.0 0.0 1.0 0.0 1.0 0.0 1.0 0.0 1.0 0.0 1.0 0.0 1.0 0.0 1.0 0.0 1.0 0.0 1.0 0.0 1.0 0.0 1.0 0.0 1.0 0.0 1.0 0.0 1.0 0.0 1.0 0.0 1.0 0.0 1.0 0.0 1.0 0.0 1.0 0.0 1.0 0.0 1.0 0.0 1.0
8
0.0 1.0 1.0 0.0 0.0 1.0 0.0 1.0
8
0.0 1.0 1.0 0.0 0.0 1.0 0.0 1.0
8
0.0 1.0 1.0 0.0 0.0 1.0 0.0 1.0
128
0.0 1.0 1.0 0.0 1.0 0.0 1.0 0.0 1.0 0.0 1.0 0.0 1.0 0.0 1.0 0.0 1.0 0.0 1.0 0.0 1.0 0.0 1.0 0.0 1.0 0.0 1.0 0.0 1.0 0.0 1.0 0.0 1.0 0.0 1.0 0.0 1.0 0.0 1.0 0.0 1.0 0.0 1.0 0.0 1.0 0.0 1.0 0.0 1.0 0.0 1.0 0.0 1.0 0.0 1.0 0.0 1.0 0.0 1.0 0.0 1.0 0.0 1.0 0.0 0.0 1.0 0.0 1.0 0.0 1.0 0.0 1.0 0.0 1.0 0.0 1.0 0.0 1.0 0.0 1.0 0.0 1.0 0.0 1.0 0.0 1.0 0.0 1.0 0.0 1.0 0.0 1.0 0.0 1.0 0.0 1.0 0.0 1.0 0.0 1.0 0.0 1.0 0.0 1.0 0.0 1.0 0.0 1.0 0.0 1.0 0.0 1.0 0.0 1.0 0.0 1.0 0.0 1.0 0.0 1.0 0.0 1.0 0.0 1.0 0.0 1.0 0.0 1.0
8
0.0 1.0 1.0 0.0 0.0 1.0 0.0 1.0
128
0.0 1.0 1.0 0.0 1.0 0.0 1.0 0.0 1.0 0.0 1.0 0.0 1.0 0.0 1.0 0.0 1.0 0.0 1.0 0.0 1.0 0.0 1.0 0.0 1.0 0.0 1.0 0.0 1.0 0.0 1.0 0.0 1.0 0.0 1.0 0.0 1.0 0.0 1.0 0.0 1.0 0.0 1.0 0.0 1.0 0.0 1.0 0.0 1.0 0.0 1.0 0.0 1.0 0.0 1.0 0.0 1.0 0.0 1.0 0.0 1.0 0.0 1.0 0.0 0.0 1.0 0.0 1.0 0.0 1.0 0.0 1.0 0.0 1.0 0.0 1.0 0.0 1.0 0.0 1.0 0.0 1.0 0.0 1.0 0.0 1.0 0.0 1.0 0.0 1.0 0.0 1.0 0.0 1.0 0.0 1.0 0.0 1.0 0.0 1.0 0.0 1.0 0.0 1.0 0.0 1.0 0.0 1.0 0.0 1.0 0.0 1.0 0.0 1.0 0.0 1.0 0.0 1.0 0.0 1.0 0.0 1.0 0.0 1.0 0.0 1.0 0.0 1.0
128
0.0 1.0 1.0 0.0 1.0 0.0 1.0 0.0 1.0 0.0 1.0 0.0 1.0 0.0 1.0 0.0 1.0 0.0 1.0 0.0 1.0 0.0 1.0 0.0 1.0 0.0 1.0 0.0 1.0 0.0 1.0 0.0 1.0 0.0 1.0 0.0 1.0 0.0 1.0 0.0 1.0 0.0 1.0 0.0 1.0 0.0 1.0 0.0 1.0 0.0 1.0 0.0 1.0 0.0 1.0 0.0 1.0 0.0 1.0 0.0 1.0 0.0 1.0 0.0 0.0 1.0 0.0 1.0 0.0 1.0 0.0 1.0 0.0 1.0 0.0 1.0 0.0 1.0 0.0 1.0 0.0 1.0 0.0 1.0 0.0 1.0 0.0 1.0 0.0 1.0 0.0 1.0 0.0 1.0 0.0 1.0 0.0 1.0 0.0 1.0 0.0 1.0 0.0 1.0 0.0 1.0 0.0 1.0 0.0 1.0 0.0 1.0 0.0 1.0 0.0 1.0 0.0 1.0 0.0 1.0 0.0 1.0 0.0 1.0 0.0 1.0 0.0 1.0
8
0.0 1.0 1.0 0.0 0.0 1.0 0.0 1.0
8
0.0 1.0 1.0 0.0 0.0 1.0 0.0 1.0
8
0.0 1.0 1.0 0.0 0.0 1.0 0.0 1.0
8
0.0 1.0 1.0 0.0 0.0 1.0 0.0 1.0
8
0.0 1.0 1.0 0.0 0.0 1.0 0.0 1.0
8
0.0 1.0 1.0 0.0 0.0 1.0 0.0 1.0
8
0.0 1.0 1.0 0.0 0.0 1.0 0.0 1.0
8
0.0 1.0 1.0 0.0 0.0 1.0 0.0 1.0
8
0.0 1.0 1.0 0.0 0.0 1.0 0.0 1.0
8
0.0 1.0 1.0 0.0 0.0 1.0 0.0 1.0
8
0.0 1.0 1.0 0.0 0.0 1.0 0.0 1.0
8
0.0 1.0 1.0 0.0 0.0 1.0 0.0 1.0
8
0.0 1.0 1.0 0.0 0.0 1.0 0.0 1.0
8
0.0 1.0 1.0 0.0 0.0 1.0 0.0 1.0
8
0.0 1.0 1.0 0.0 0.0 1.0 0.0 1.0
8
0.0 1.0 1.0 0.0 0.0 1.0 0.0 1.0
8
0.0 1.0 1.0 0.0 0.0 1.0 0.0 1.0
8
0.0 1.0 1.0 0.0 0.0 1.0 0.0 1.0
8
0.0 1.0 1.0 0.0 0.0 1.0 0.0 1.0
8
1.0 0.0 0.0 1.0 0.0 1.0 0.0 1.0
8
1.0 0.0 0.0 1.0 0.0 1.0 0.0 1.0
8
1.0 0.0 0.0 1.0 0.0 1.0 0.0 1.0
8
1.0 0.0 0.0 1.0 0.0 1.0 0.0 1.0
8
1.0 0.0 0.0 1.0 0.0 1.0 0.0 1.0
8
1.0 0.0 0.0 1.0 0.0 1.0 0.0 1.0
16
0.0 1.0 0.0 1.0 0.0 1.0 1.0 0.0 0.0 1.0 0.0 1.0 0.0 1.0 0.0 1.0
16
0.0 1.0 0.0 1.0 0.0 1.0 1.0 0.0 0.0 1.0 0.0 1.0 0.0 1.0 0.0 1.0
8
0.0 1.0 1.0 0.0 0.0 1.0 0.0 1.0
8
0.0 1.0 1.0 0.0 0.0 1.0 0.0 1.0
8
0.0 1.0 1.0 0.0 0.0 1.0 0.0 1.0
8
0.0 1.0 1.0 0.0 0.0 1.0 0.0 1.0
8
0.0 1.0 1.0 0.0 0.0 1.0 0.0 1.0
8
0.0 1.0 1.0 0.0 0.0 1.0 0.0 1.0
16
0.0 1.0 0.0 1.0 0.0 1.0 1.0 0.0 0.0 1.0 0.0 1.0 0.0 1.0 0.0 1.0
16
0.0 1.0 0.0 1.0 0.0 1.0 1.0 0.0 0.0 1.0 0.0 1.0 0.0 1.0 0.0 1.0
32
0.0 1.0 0.0 1.0 0.0 1.0 0.0 1.0 0.0 1.0 0.0 1.0 0.0 1.0 1.0 0.0 0.0 1.0 0.0 1.0 0.0 1.0 0.0 1.0 0.0 1.0 0.0 1.0 0.0 1.0 0.0 1.0
16
0.0 1.0 0.0 1.0 0.0 1.0 1.0 0.0 0.0 1.0 0.0 1.0 0.0 1.0 0.0 1.0
8
0.0 1.0 1.0 0.0 0.0 1.0 0.0 1.0
8
0.0 1.0 1.0 0.0 0.0 1.0 0.0 1.0
8
0.0 1.0 1.0 0.0 0.0 1.0 0.0 1.0
8
0.0 1.0 1.0 0.0 0.0 1.0 0.0 1.0
16
0.0 1.0 0.0 1.0 0.0 1.0 1.0 0.0 0.0 1.0 0.0 1.0 0.0 1.0 0.0 1.0
8
0.0 1.0 1.0 0.0 0.0 1.0 0.0 1.0
8
0.0 1.0 1.0 0.0 0.0 1.0 0.0 1.0
8
1.0 0.0 0.0 1.0 0.0 1.0 0.0 1.0
8
1.0 0.0 0.0 1.0 0.0 1.0 0.0 1.0
8
1.0 0.0 0.0 1.0 0.0 1.0 0.0 1.0
8
1.0 0.0 0.0 1.0 0.0 1.0 0.0 1.0
8
1.0 0.0 0.0 1.0 0.0 1.0 0.0 1.0
8
1.0 0.0 0.0 1.0 0.0 1.0 0.0 1.0
8
1.0 0.0 0.0 1.0 0.0 1.0 0.0 1.0
8
1.0 0.0 0.0 1.0 0.0 1.0 0.0 1.0
8
1.0 0.0 0.0 1.0 0.0 1.0 0.0 1.0
8
1.0 0.0 0.0 1.0 0.0 1.0 0.0 1.0
8
1.0 0.0 0.0 1.0 0.0 1.0 0.0 1.0
8
1.0 0.0 0.0 1.0 0.0 1.0 0.0 1.0
8
1.0 0.0 0.0 1.0 0.0 1.0 0.0 1.0
8
1.0 0.0 0.0 1.0 0.0 1.0 0.0 1.0
8
1.0 0.0 0.0 1.0 0.0 1.0 0.0 1.0
8
1.0 0.0 0.0 1.0 0.0 1.0 0.0 1.0
8
1.0 0.0 0.0 1.0 0.0 1.0 0.0 1.0
8
1.0 0.0 0.0 1.0 0.0 1.0 0.0 1.0
8
1.0 0.0 0.0 1.0 0.0 1.0 0.0 1.0
8
1.0 0.0 0.0 1.0 0.0 1.0 0.0 1.0
8
1.0 0.0 0.0 1.0 0.0 1.0 0.0 1.0
8
1.0 0.0 0.0 1.0 0.0 1.0 0.0 1.0
8
1.0 0.0 0.0 1.0 0.0 1.0 0.0 1.0
8
1.0 0.0 0.0 1.0 0.0 1.0 0.0 1.0
8
1.0 0.0 0.0 1.0 0.0 1.0 0.0 1.0
8
1.0 0.0 0.0 1.0 0.0 1.0 0.0 1.0
8
1.0 0.0 0.0 1.0 0.0 1.0 0.0 1.0
8
1.0 0.0 0.0 1.0 0.0 1.0 0.0 1.0
8
1.0 0.0 0.0 1.0 0.0 1.0 0.0 1.0
8
1.0 0.0 0.0 1.0 0.0 1.0 0.0 1.0
8
1.0 0.0 0.0 1.0 0.0 1.0 0.0 1.0
8
1.0 0.0 0.0 1.0 0.0 1.0 0.0 1.0
8
1.0 0.0 0.0 1.0 0.0 1.0 0.0 1.0
8
1.0 0.0 0.0 1.0 0.0 1.0 0.0 1.0
8
1.0 0.0 0.0 1.0 0.0 1.0 0.0 1.0
8
1.0 0.0 0.0 1.0 0.0 1.0 0.0 1.0
8
1.0 0.0 0.0 1.0 0.0 1.0 0.0 1.0
8
1.0 0.0 0.0 1.0 0.0 1.0 0.0 1.0
8
1.0 0.0 0.0 1.0 0.0 1.0 0.0 1.0
8
1.0 0.0 0.0 1.0 0.0 1.0 0.0 1.0
8
1.0 0.0 0.0 1.0 0.0 1.0 0.0 1.0
8
1.0 0.0 0.0 1.0 0.0 1.0 0.0 1.0
8
1.0 0.0 0.0 1.0 0.0 1.0 0.0 1.0
8
1.0 0.0 0.0 1.0 0.0 1.0 0.0 1.0
8
1.0 0.0 0.0 1.0 0.0 1.0 0.0 1.0
8
1.0 0.0 0.0 1.0 0.0 1.0 0.0 1.0
8
1.0 0.0 0.0 1.0 0.0 1.0 0.0 1.0
8
1.0 0.0 0.0 1.0 0.0 1.0 0.0 1.0
8
1.0 0.0 0.0 1.0 0.0 1.0 0.0 1.0
8
1.0 0.0 0.0 1.0 0.0 1.0 0.0 1.0
8
1.0 0.0 0.0 1.0 0.0 1.0 0.0 1.0
16
0.0 1.0 0.0 1.0 0.0 1.0 1.0 0.0 0.0 1.0 0.0 1.0 0.0 1.0 0.0 1.0
8
0.0 1.0 1.0 0.0 0.0 1.0 0.0 1.0
8
0.0 1.0 1.0 0.0 0.0 1.0 0.0 1.0
8
0.0 1.0 1.0 0.0 0.0 1.0 0.0 1.0
8
0.0 1.0 1.0 0.0 0.0 1.0 0.0 1.0
8
0.0 1.0 1.0 0.0 0.0 1.0 0.0 1.0
8
0.0 1.0 1.0 0.0 0.0 1.0 0.0 1.0
32
0.0 1.0 0.0 1.0 0.0 1.0 0.0 1.0 0.0 1.0 0.0 1.0 0.0 1.0 1.0 0.0 0.0 1.0 0.0 1.0 0.0 1.0 0.0 1.0 0.0 1.0 0.0 1.0 0.0 1.0 0.0 1.0
16
0.0 1.0 0.0 1.0 0.0 1.0 1.0 0.0 0.0 1.0 0.0 1.0 0.0 1.0 0.0 1.0
32
0.0 1.0 0.0 1.0 0.0 1.0 0.0 1.0 0.0 1.0 0.0 1.0 0.0 1.0 1.0 0.0 0.0 1.0 0.0 1.0 0.0 1.0 0.0 1.0 0.0 1.0 0.0 1.0 0.0 1.0 0.0 1.0
8
0.0 1.0 1.0 0.0 0.0 1.0 0.0 1.0
8
0.0 1.0 1.0 0.0 0.0 1.0 0.0 1.0
16
0.0 1.0 0.0 1.0 0.0 1.0 1.0 0.0 0.0 1.0 0.0 1.0 0.0 1.0 0.0 1.0
8
0.0 1.0 1.0 0.0 0.0 1.0 0.0 1.0
16
0.0 1.0 0.0 1.0 0.0 1.0 1.0 0.0 0.0 1.0 0.0 1.0 0.0 1.0 0.0 1.0
8
0.0 1.0 1.0 0.0 0.0 1.0 0.0 1.0
8
1.0 0.0 0.0 1.0 0.0 1.0 0.0 1.0
8
1.0 0.0 0.0 1.0 0.0 1.0 0.0 1.0
8
1.0 0.0 0.0 1.0 0.0 1.0 0.0 1.0
8
1.0 0.0 0.0 1.0 0.0 1.0 0.0 1.0
8
1.0 0.0 0.0 1.0 0.0 1.0 0.0 1.0
8
1.0 0.0 0.0 1.0 0.0 1.0 0.0 1.0
8
1.0 0.0 0.0 1.0 0.0 1.0 0.0 1.0
8
1.0 0.0 0.0 1.0 0.0 1.0 0.0 1.0
8
1.0 0.0 0.0 1.0 0.0 1.0 0.0 1.0
8
1.0 0.0 0.0 1.0 0.0 1.0 0.0 1.0
8
1.0 0.0 0.0 1.0 0.0 1.0 0.0 1.0
8
1.0 0.0 0.0 1.0 0.0 1.0 0.0 1.0
8
1.0 0.0 0.0 1.0 0.0 1.0 0.0 1.0
8
1.0 0.0 0.0 1.0 0.0 1.0 0.0 1.0
8
1.0 0.0 0.0 1.0 0.0 1.0 0.0 1.0
8
1.0 0.0 0.0 1.0 0.0 1.0 0.0 1.0
8
1.0 0.0 0.0 1.0 0.0 1.0 0.0 1.0
8
1.0 0.0 0.0 1.0 0.0 1.0 0.0 1.0
8
1.0 0.0 0.0 1.0 0.0 1.0 0.0 1.0
8
1.0 0.0 0.0 1.0 0.0 1.0 0.0 1.0
8
1.0 0.0 0.0 1.0 0.0 1.0 0.0 1.0
8
1.0 0.0 0.0 1.0 0.0 1.0 0.0 1.0
8
1.0 0.0 0.0 1.0 0.0 1.0 0.0 1.0
8
1.0 0.0 0.0 1.0 0.0 1.0 0.0 1.0
8
1.0 0.0 0.0 1.0 0.0 1.0 0.0 1.0
8
1.0 0.0 0.0 1.0 0.0 1.0 0.0 1.0
8
1.0 0.0 0.0 1.0 0.0 1.0 0.0 1.0
8
1.0 0.0 0.0 1.0 0.0 1.0 0.0 1.0
8
1.0 0.0 0.0 1.0 0.0 1.0 0.0 1.0
8
1.0 0.0 0.0 1.0 0.0 1.0 0.0 1.0
8
1.0 0.0 0.0 1.0 0.0 1.0 0.0 1.0
8
1.0 0.0 0.0 1.0 0.0 1.0 0.0 1.0
8
1.0 0.0 0.0 1.0 0.0 1.0 0.0 1.0
8
1.0 0.0 0.0 1.0 0.0 1.0 0.0 1.0
8
1.0 0.0 0.0 1.0 0.0 1.0 0.0 1.0
8
1.0 0.0 0.0 1.0 0.0 1.0 0.0 1.0
8
1.0 0.0 0.0 1.0 0.0 1.0 0.0 1.0
8
1.0 0.0 0.0 1.0 0.0 1.0 0.0 1.0
8
1.0 0.0 0.0 1.0 0.0 1.0 0.0 1.0
8
1.0 0.0 0.0 1.0 0.0 1.0 0.0 1.0
8
1.0 0.0 0.0 1.0 0.0 1.0 0.0 1.0
8
1.0 0.0 0.0 1.0 0.0 1.0 0.0 1.0
8
1.0 0.0 0.0 1.0 0.0 1.0 0.0 1.0
8
1.0 0.0 0.0 1.0 0.0 1.0 0.0 1.0
8
1.0 0.0 0.0 1.0 0.0 1.0 0.0 1.0
8
1.0 0.0 0.0 1.0 0.0 1.0 0.0 1.0
8
1.0 0.0 0.0 1.0 0.0 1.0 0.0 1.0
8
1.0 0.0 0.0 1.0 0.0 1.0 0.0 1.0
8
1.0 0.0 0.0 1.0 0.0 1.0 0.0 1.0
8
1.0 0.0 0.0 1.0 0.0 1.0 0.0 1.0
8
1.0 0.0 0.0 1.0 0.0 1.0 0.0 1.0
8
1.0 0.0 0.0 1.0 0.0 1.0 0.0 1.0
8
1.0 0.0 0.0 1.0 0.0 1.0 0.0 1.0
8
1.0 0.0 0.0 1.0 0.0 1.0 0.0 1.0
8
1.0 0.0 0.0 1.0 0.0 1.0 0.0 1.0
8
1.0 0.0 0.0 1.0 0.0 1.0 0.0 1.0
8
1.0 0.0 0.0 1.0 0.0 1.0 0.0 1.0
8
1.0 0.0 0.0 1.0 0.0 1.0 0.0 1.0
16
0.0 1.0 0.0 1.0 0.0 1.0 1.0 0.0 0.0 1.0 0.0 1.0 0.0 1.0 0.0 1.0
8
0.0 1.0 1.0 0.0 0.0 1.0 0.0 1.0
8
0.0 1.0 1.0 0.0 0.0 1.0 0.0 1.0
8
0.0 1.0 1.0 0.0 0.0 1.0 0.0 1.0
16
0.0 1.0 0.0 1.0 0.0 1.0 1.0 0.0 0.0 1.0 0.0 1.0 0.0 1.0 0.0 1.0
8
0.0 1.0 1.0 0.0 0.0 1.0 0.0 1.0
32
0.0 1.0 0.0 1.0 0.0 1.0 0.0 1.0 0.0 1.0 0.0 1.0 0.0 1.0 1.0 0.0 0.0 1.0 0.0 1.0 0.0 1.0 0.0 1.0 0.0 1.0 0.0 1.0 0.0 1.0 0.0 1.0
8
0.0 1.0 1.0 0.0 0.0 1.0 0.0 1.0
8
0.0 1.0 1.0 0.0 0.0 1.0 0.0 1.0
8
0.0 1.0 1.0 0.0 0.0 1.0 0.0 1.0
16
0.0 1.0 0.0 1.0 0.0 1.0 1.0 0.0 0.0 1.0 0.0 1.0 0.0 1.0 0.0 1.0
8
0.0 1.0 1.0 0.0 0.0 1.0 0.0 1.0
8
0.0 1.0 1.0 0.0 0.0 1.0 0.0 1.0
16
0.0 1.0 0.0 1.0 0.0 1.0 1.0 0.0 0.0 1.0 0.0 1.0 0.0 1.0 0.0 1.0
8
1.0 0.0 0.0 1.0 0.0 1.0 0.0 1.0
8
1.0 0.0 0.0 1.0 0.0 1.0 0.0 1.0
8
1.0 0.0 0.0 1.0 0.0 1.0 0.0 1.0
8
1.0 0.0 0.0 1.0 0.0 1.0 0.0 1.0
8
1.0 0.0 0.0 1.0 0.0 1.0 0.0 1.0
8
1.0 0.0 0.0 1.0 0.0 1.0 0.0 1.0
8
1.0 0.0 0.0 1.0 0.0 1.0 0.0 1.0
8
1.0 0.0 0.0 1.0 0.0 1.0 0.0 1.0
8
1.0 0.0 0.0 1.0 0.0 1.0 0.0 1.0
8
1.0 0.0 0.0 1.0 0.0 1.0 0.0 1.0
8
1.0 0.0 0.0 1.0 0.0 1.0 0.0 1.0
8
1.0 0.0 0.0 1.0 0.0 1.0 0.0 1.0
8
1.0 0.0 0.0 1.0 0.0 1.0 0.0 1.0
8
1.0 0.0 0.0 1.0 0.0 1.0 0.0 1.0
8
1.0 0.0 0.0 1.0 0.0 1.0 0.0 1.0
8
1.0 0.0 0.0 1.0 0.0 1.0 0.0 1.0
8
1.0 0.0 0.0 1.0 0.0 1.0 0.0 1.0
8
1.0 0.0 0.0 1.0 0.0 1.0 0.0 1.0
8
1.0 0.0 0.0 1.0 0.0 1.0 0.0 1.0
8
1.0 0.0 0.0 1.0 0.0 1.0 0.0 1.0
8
1.0 0.0 0.0 1.0 0.0 1.0 0.0 1.0
8
1.0 0.0 0.0 1.0 0.0 1.0 0.0 1.0
8
1.0 0.0 0.0 1.0 0.0 1.0 0.0 1.0
8
1.0 0.0 0.0 1.0 0.0 1.0 0.0 1.0
8
1.0 0.0 0.0 1.0 0.0 1.0 0.0 1.0
8
1.0 0.0 0.0 1.0 0.0 1.0 0.0 1.0
8
1.0 0.0 0.0 1.0 0.0 1.0 0.0 1.0
8
1.0 0.0 0.0 1.0 0.0 1.0 0.0 1.0
8
1.0 0.0 0.0 1.0 0.0 1.0 0.0 1.0
8
1.0 0.0 0.0 1.0 0.0 1.0 0.0 1.0
8
1.0 0.0 0.0 1.0 0.0 1.0 0.0 1.0
8
1.0 0.0 0.0 1.0 0.0 1.0 0.0 1.0
8
1.0 0.0 0.0 1.0 0.0 1.0 0.0 1.0
8
1.0 0.0 0.0 1.0 0.0 1.0 0.0 1.0
8
1.0 0.0 0.0 1.0 0.0 1.0 0.0 1.0
8
1.0 0.0 0.0 1.0 0.0 1.0 0.0 1.0
8
1.0 0.0 0.0 1.0 0.0 1.0 0.0 1.0
8
1.0 0.0 0.0 1.0 0.0 1.0 0.0 1.0
8
1.0 0.0 0.0 1.0 0.0 1.0 0.0 1.0
8
1.0 0.0 0.0 1.0 0.0 1.0 0.0 1.0
8
1.0 0.0 0.0 1.0 0.0 1.0 0.0 1.0
8
1.0 0.0 0.0 1.0 0.0 1.0 0.0 1.0
8
1.0 0.0 0.0 1.0 0.0 1.0 0.0 1.0
8
1.0 0.0 0.0 1.0 0.0 1.0 0.0 1.0
8
1.0 0.0 0.0 1.0 0.0 1.0 0.0 1.0
8
1.0 0.0 0.0 1.0 0.0 1.0 0.0 1.0
8
1.0 0.0 0.0 1.0 0.0 1.0 0.0 1.0
8
1.0 0.0 0.0 1.0 0.0 1.0 0.0 1.0
32
0.0 1.0 0.0 1.0 0.0 1.0 0.0 1.0 0.0 1.0 0.0 1.0 0.0 1.0 1.0 0.0 0.0 1.0 0.0 1.0 0.0 1.0 0.0 1.0 0.0 1.0 0.0 1.0 0.0 1.0 0.0 1.0
16
0.0 1.0 0.0 1.0 0.0 1.0 1.0 0.0 0.0 1.0 0.0 1.0 0.0 1.0 0.0 1.0
8
1.0 0.0 0.0 1.0 0.0 1.0 0.0 1.0
8
1.0 0.0 0.0 1.0 0.0 1.0 0.0 1.0
8
1.0 0.0 0.0 1.0 0.0 1.0 0.0 1.0
8
1.0 0.0 0.0 1.0 0.0 1.0 0.0 1.0
8
1.0 0.0 0.0 1.0 0.0 1.0 0.0 1.0
8
1.0 0.0 0.0 1.0 0.0 1.0 0.0 1.0
8
1.0 0.0 0.0 1.0 0.0 1.0 0.0 1.0
8
1.0 0.0 0.0 1.0 0.0 1.0 0.0 1.0